200
1000
300
298
298
298
298
295
295
293
293
292
290
289
288
288
288
287
286
286
285
285
284
284
283
283
280
279
279
277
275
273
271
270
269
268
266
266
265
261
260
260
258
254
253
252
252
252
250
250
249
249
248
244
244
241
240
238
238
238
235
234
232
231
231
230
230
227
226
226
225
225
225
224
224
223
223
222
222
222
222
221
221
220
220
220
220
220
219
219
217
216
215
213
213
212
210
210
210
206
205
205
204
203
203
203
203
196
193
192
191
188
188
187
186
185
183
183
182
181
178
176
175
174
173
172
172
171
171
171
170
167
166
164
164
163
163
161
161
159
157
155
154
153
152
152
152
151
148
147
146
146
144
144
143
142
141
141
139
139
136
136
136
135
135
133
132
132
132
127
127
126
123
123
122
121
120
120
120
118
117
115
114
113
113
112
112
111
111
111
111
110
109
108
108
107
107
105
104
104
104
102
